10 45
1 2 21
1 3 4
1 4 12
1 5 0
1 6 4
1 7 6
1 8 22
1 9 11
1 10 20
2 3 8
2 4 4
2 5 29
2 6 18
2 7 14
2 8 28
2 9 13
2 10 24
3 4 26
3 5 29
3 6 7
3 7 2
3 8 9
3 9 8
3 10 8
4 5 5
4 6 15
4 7 27
4 8 20
4 9 2
4 10 29
5 6 18
5 7 17
5 8 6
5 9 25
5 10 19
6 7 19
6 8 2
6 9 27
6 10 7
7 8 27
7 9 7
7 10 23
8 9 14
8 10 10
9 10 23
